p cnf 48 219
1 2 0
-1 -2 0
13 14 0
-13 -14 0
25 26 0
-25 -26 0
37 38 0
-37 -38 0
3 4 0
-3 -4 0
15 16 0
-15 -16 0
27 28 0
-27 -28 0
39 40 0
-39 -40 0
5 6 0
-5 -6 0
17 18 0
-17 -18 0
29 30 0
-29 -30 0
41 42 0
-41 -42 0
7 8 0
-7 -8 0
19 20 0
-19 -20 0
31 32 0
-31 -32 0
43 44 0
-43 -44 0
9 10 0
-9 -10 0
21 22 0
-21 -22 0
33 34 0
-33 -34 0
45 46 0
-45 -46 0
11 12 0
-11 -12 0
23 24 0
-23 -24 0
35 36 0
-35 -36 0
47 48 0
-47 -48 0
-1 -13 -37 4 0
-1 -14 -37 4 0
-1 -13 -38 4 0
-1 -14 -38 4 0
-2 -13 -37 4 0
-2 -14 -37 4 0
-2 -13 -38 4 0
-2 -14 -38 3 0
-13 -1 -25 16 0
-13 -2 -25 16 0
-13 -1 -26 16 0
-13 -2 -26 16 0
-14 -1 -25 16 0
-14 -2 -25 16 0
-14 -1 -26 16 0
-14 -2 -26 15 0
-25 -13 -37 28 0
-25 -14 -37 28 0
-25 -13 -38 28 0
-25 -14 -38 28 0
-26 -13 -37 28 0
-26 -14 -37 28 0
-26 -13 -38 28 0
-26 -14 -38 27 0
-37 -1 -25 40 0
-37 -2 -25 40 0
-37 -1 -26 40 0
-37 -2 -26 40 0
-38 -1 -25 40 0
-38 -2 -25 40 0
-38 -1 -26 40 0
-38 -2 -26 39 0
-3 -15 -39 6 0
-3 -16 -39 6 0
-3 -15 -40 6 0
-3 -16 -40 6 0
-4 -15 -39 6 0
-4 -16 -39 6 0
-4 -15 -40 6 0
-4 -16 -40 5 0
-15 -3 -27 18 0
-15 -4 -27 18 0
-15 -3 -28 18 0
-15 -4 -28 18 0
-16 -3 -27 18 0
-16 -4 -27 18 0
-16 -3 -28 18 0
-16 -4 -28 17 0
-27 -15 -39 30 0
-27 -16 -39 30 0
-27 -15 -40 30 0
-27 -16 -40 30 0
-28 -15 -39 30 0
-28 -16 -39 30 0
-28 -15 -40 30 0
-28 -16 -40 29 0
-39 -3 -27 42 0
-39 -4 -27 42 0
-39 -3 -28 42 0
-39 -4 -28 42 0
-40 -3 -27 42 0
-40 -4 -27 42 0
-40 -3 -28 42 0
-40 -4 -28 41 0
-5 -17 -41 8 0
-5 -18 -41 8 0
-5 -17 -42 8 0
-5 -18 -42 8 0
-6 -17 -41 8 0
-6 -18 -41 8 0
-6 -17 -42 8 0
-6 -18 -42 7 0
-17 -5 -29 20 0
-17 -6 -29 20 0
-17 -5 -30 20 0
-17 -6 -30 20 0
-18 -5 -29 20 0
-18 -6 -29 20 0
-18 -5 -30 20 0
-18 -6 -30 19 0
-29 -17 -41 32 0
-29 -18 -41 32 0
-29 -17 -42 32 0
-29 -18 -42 32 0
-30 -17 -41 32 0
-30 -18 -41 32 0
-30 -17 -42 32 0
-30 -18 -42 31 0
-41 -5 -29 44 0
-41 -6 -29 44 0
-41 -5 -30 44 0
-41 -6 -30 44 0
-42 -5 -29 44 0
-42 -6 -29 44 0
-42 -5 -30 44 0
-42 -6 -30 43 0
-7 -19 -43 10 0
-7 -20 -43 10 0
-7 -19 -44 10 0
-7 -20 -44 10 0
-8 -19 -43 10 0
-8 -20 -43 10 0
-8 -19 -44 10 0
-8 -20 -44 9 0
-19 -7 -31 22 0
-19 -8 -31 22 0
-19 -7 -32 22 0
-19 -8 -32 22 0
-20 -7 -31 22 0
-20 -8 -31 22 0
-20 -7 -32 22 0
-20 -8 -32 21 0
-31 -19 -43 34 0
-31 -20 -43 34 0
-31 -19 -44 34 0
-31 -20 -44 34 0
-32 -19 -43 34 0
-32 -20 -43 34 0
-32 -19 -44 34 0
-32 -20 -44 33 0
-43 -7 -31 46 0
-43 -8 -31 46 0
-43 -7 -32 46 0
-43 -8 -32 46 0
-44 -7 -31 46 0
-44 -8 -31 46 0
-44 -7 -32 46 0
-44 -8 -32 45 0
-9 -21 -45 12 0
-9 -22 -45 12 0
-9 -21 -46 12 0
-9 -22 -46 12 0
-10 -21 -45 12 0
-10 -22 -45 12 0
-10 -21 -46 12 0
-10 -22 -46 11 0
-21 -9 -33 24 0
-21 -10 -33 24 0
-21 -9 -34 24 0
-21 -10 -34 24 0
-22 -9 -33 24 0
-22 -10 -33 24 0
-22 -9 -34 24 0
-22 -10 -34 23 0
-33 -21 -45 36 0
-33 -22 -45 36 0
-33 -21 -46 36 0
-33 -22 -46 36 0
-34 -21 -45 36 0
-34 -22 -45 36 0
-34 -21 -46 36 0
-34 -22 -46 35 0
-45 -9 -33 48 0
-45 -10 -33 48 0
-45 -9 -34 48 0
-45 -10 -34 48 0
-46 -9 -33 48 0
-46 -10 -33 48 0
-46 -9 -34 48 0
-46 -10 -34 47 0
-11 -23 -35 -47 0
-12 -24 -36 -48 0
-1 -13 -25 -37 0
-2 -14 -26 -38 0
-3 -15 -27 -39 0
-4 -16 -28 -40 0
-7 -19 -31 -43 0
-8 -20 -32 -44 0
-13 -2 0
-25 -2 0
-37 -2 0
